sat_in/bonus/00.wcnf
p wcnf 24 172 11
1 1 5 9 13 17 21 0
2 2 6 10 14 18 22 0
3 3 7 11 15 19 23 0
4 4 8 12 16 20 24 0
11 -1 -14 0
11 -1 -15 0
11 -1 -16 0
11 -2 -13 0
11 -2 -15 0
11 -2 -16 0
11 -3 -13 0
11 -3 -14 0
11 -3 -16 0
11 -4 -13 0
11 -4 -14 0
11 -4 -15 0
11 -5 -10 0
11 -5 -11 0
11 -5 -12 0
11 -6 -9 0
11 -6 -11 0
11 -6 -12 0
11 -7 -9 0
11 -7 -10 0
11 -7 -12 0
11 -8 -9 0
11 -8 -10 0
11 -8 -11 0
11 -5 -18 0
11 -5 -19 0
11 -5 -20 0
11 -6 -17 0
11 -6 -19 0
11 -6 -20 0
11 -7 -17 0
11 -7 -18 0
11 -7 -20 0
11 -8 -17 0
11 -8 -18 0
11 -8 -19 0
11 -9 -22 0
11 -9 -23 0
11 -9 -24 0
11 -10 -21 0
11 -10 -23 0
11 -10 -24 0
11 -11 -21 0
11 -11 -22 0
11 -11 -24 0
11 -12 -21 0
11 -12 -22 0
11 -12 -23 0
11 -13 -22 0
11 -13 -23 0
11 -13 -24 0
11 -14 -21 0
11 -14 -23 0
11 -14 -24 0
11 -15 -21 0
11 -15 -22 0
11 -15 -24 0
11 -16 -21 0
11 -16 -22 0
11 -16 -23 0
11 -17 -22 0
11 -17 -23 0
11 -17 -24 0
11 -18 -21 0
11 -18 -23 0
11 -18 -24 0
11 -19 -21 0
11 -19 -22 0
11 -19 -24 0
11 -20 -21 0
11 -20 -22 0
11 -20 -23 0
11 -1 -5 0
11 -1 -9 0
11 -1 -13 0
11 -1 -17 0
11 -1 -21 0
11 -2 -6 0
11 -2 -10 0
11 -2 -14 0
11 -2 -18 0
11 -2 -22 0
11 -3 -7 0
11 -3 -11 0
11 -3 -15 0
11 -3 -19 0
11 -3 -23 0
11 -4 -8 0
11 -4 -12 0
11 -4 -16 0
11 -4 -20 0
11 -4 -24 0
11 -5 -9 0
11 -5 -13 0
11 -5 -17 0
11 -5 -21 0
11 -6 -10 0
11 -6 -14 0
11 -6 -18 0
11 -6 -22 0
11 -7 -11 0
11 -7 -15 0
11 -7 -19 0
11 -7 -23 0
11 -8 -12 0
11 -8 -16 0
11 -8 -20 0
11 -8 -24 0
11 -9 -13 0
11 -9 -17 0
11 -9 -21 0
11 -10 -14 0
11 -10 -18 0
11 -10 -22 0
11 -11 -15 0
11 -11 -19 0
11 -11 -23 0
11 -12 -16 0
11 -12 -20 0
11 -12 -24 0
11 -13 -17 0
11 -13 -21 0
11 -14 -18 0
11 -14 -22 0
11 -15 -19 0
11 -15 -23 0
11 -16 -20 0
11 -16 -24 0
11 -17 -21 0
11 -18 -22 0
11 -19 -23 0
11 -20 -24 0
11 -1 -2 0
11 -1 -3 0
11 -1 -4 0
11 -2 -3 0
11 -2 -4 0
11 -3 -4 0
11 -5 -6 0
11 -5 -7 0
11 -5 -8 0
11 -6 -7 0
11 -6 -8 0
11 -7 -8 0
11 -9 -10 0
11 -9 -11 0
11 -9 -12 0
11 -10 -11 0
11 -10 -12 0
11 -11 -12 0
11 -13 -14 0
11 -13 -15 0
11 -13 -16 0
11 -14 -15 0
11 -14 -16 0
11 -15 -16 0
11 -17 -18 0
11 -17 -19 0
11 -17 -20 0
11 -18 -19 0
11 -18 -20 0
11 -19 -20 0
11 -21 -22 0
11 -21 -23 0
11 -21 -24 0
11 -22 -23 0
11 -22 -24 0
11 -23 -24 0
