sat_in/task3/00.cnf
p cnf 18 102
1 4 7 10 13 16 0
2 5 8 11 14 17 0
3 6 9 12 15 18 0
-1 -11 0
-1 -12 0
-2 -10 0
-2 -12 0
-3 -10 0
-3 -11 0
-4 -8 0
-4 -9 0
-5 -7 0
-5 -9 0
-6 -7 0
-6 -8 0
-4 -14 0
-4 -15 0
-5 -13 0
-5 -15 0
-6 -13 0
-6 -14 0
-7 -17 0
-7 -18 0
-8 -16 0
-8 -18 0
-9 -16 0
-9 -17 0
-10 -17 0
-10 -18 0
-11 -16 0
-11 -18 0
-12 -16 0
-12 -17 0
-13 -17 0
-13 -18 0
-14 -16 0
-14 -18 0
-15 -16 0
-15 -17 0
-19 -5 0
-19 -6 0
-20 -4 0
-20 -6 0
-21 -4 0
-21 -5 0
-19 -8 0
-19 -9 0
-20 -7 0
-20 -9 0
-21 -7 0
-21 -8 0
-19 -11 0
-19 -12 0
-20 -10 0
-20 -12 0
-21 -10 0
-21 -11 0
-19 -14 0
-19 -15 0
-20 -13 0
-20 -15 0
-21 -13 0
-21 -14 0
-19 -17 0
-19 -18 0
-20 -16 0
-20 -18 0
-21 -16 0
-21 -17 0
-22 -8 0
-22 -9 0
-23 -7 0
-23 -9 0
-24 -7 0
-24 -8 0
-22 -11 0
-22 -12 0
-23 -10 0
-23 -12 0
-24 -10 0
-24 -11 0
-22 -14 0
-22 -15 0
-23 -13 0
-23 -15 0
-24 -13 0
-24 -14 0
-22 -17 0
-22 -18 0
-23 -16 0
-23 -18 0
-24 -16 0
-24 -17 0
-25 -11 0
-25 -12 0
-26 -10 0
-26 -12 0
-27 -10 0
-27 -11 0
-25 -14 0
-25 -15 0
-26 -13 0
-26 -15 0
-27 -13 0
-27 -14 0
-25 -17 0
-25 -18 0
-26 -16 0
-26 -18 0
-27 -16 0
-27 -17 0
-28 -14 0
-28 -15 0
-29 -13 0
-29 -15 0
-30 -13 0
-30 -14 0
-28 -17 0
-28 -18 0
-29 -16 0
-29 -18 0
-30 -16 0
-30 -17 0
-31 -17 0
-31 -18 0
-32 -16 0
-32 -18 0
-33 -16 0
-33 -17 0
-1 -4 0
-1 -7 0
-1 -10 0
-1 -13 0
-1 -16 0
-2 -5 0
-2 -8 0
-2 -11 0
-2 -14 0
-2 -17 0
-3 -6 0
-3 -9 0
-3 -12 0
-3 -15 0
-3 -18 0
-4 -7 0
-4 -10 0
-4 -13 0
-4 -16 0
-5 -8 0
-5 -11 0
-5 -14 0
-5 -17 0
-6 -9 0
-6 -12 0
-6 -15 0
-6 -18 0
-7 -10 0
-7 -13 0
-7 -16 0
-8 -11 0
-8 -14 0
-8 -17 0
-9 -12 0
-9 -15 0
-9 -18 0
-10 -13 0
-10 -16 0
-11 -14 0
-11 -17 0
-12 -15 0
-12 -18 0
-13 -16 0
-14 -17 0
-15 -18 0
-1 -2 0
-1 -3 0
-2 -3 0
-4 -5 0
-4 -6 0
-5 -6 0
-7 -8 0
-7 -9 0
-8 -9 0
-10 -11 0
-10 -12 0
-11 -12 0
-13 -14 0
-13 -15 0
-14 -15 0
-16 -17 0
-16 -18 0
-17 -18 0
